proyfinal/src/viki/013/experimentInOfficeAgust.take6.output/1aa4bffc-f17b-4331-a529-8b13e02554ef.als.dat
{'cnf.clauses': '118081',
 'cnf.totvars': '69608',
 'conflict literals': '2',
 'conflicts': '3',
 'decisions': '2338',
 'memused.mb': '17.44',
 'outcome': 'UNSAT',
 'propagations': '24461',
 'restarts': '1',
 'solver.msecs': 29,
 'task.msecs': 91}
