proyfinal/src/viki/013/experimentInOfficeAgust.take6.output/1aa4bffc-f17b-4331-a529-8b13e02554ef.als.out
Reading from standard input... Use '--help' for help.
============================[ Problem Statistics ]=============================
|                                                                             |
|  Number of variables:         69608                                         |
|  Number of clauses:          118081                                         |
|  Parse time:                   0.02 s                                       |
|                                                                             |
============================[ Search Statistics ]==============================
| Conflicts |          ORIGINAL         |          LEARNT          | Progress |
|           |    Vars  Clauses Literals |    Limit  Clauses Lit/Cl |          |
===============================================================================
===============================================================================
restarts              : 1
conflicts             : 3              (103 /sec)
decisions             : 2338           (0.00 % random) (80618 /sec)
propagations          : 24461          (843454 /sec)
conflict literals     : 2              (0.00 % deleted)
Memory used           : 17.44 MB
CPU time              : 0.029001 s

UNSATISFIABLE
